Water Network: d10_fossolo_poly_1.dat
*******************************************************************************

-------------------------------- Solving with gurobi --------------------------
min_demand: 0.00026
max_demand: 0.00202
max_flow: 0.033909999999999996
Gurobi 11.0.2: Set parameter LogToConsole to value 1
  tech:outlev = 1
Set parameter Presolve to value 0
  pre:solve = 0
Set parameter TimeLimit to value 3600
  lim:time = 3600
Set parameter NumericFocus to value 1
  alg:numericfocus = 1
Set parameter InfUnbdInfo to value 1
Gurobi Optimizer version 11.0.2 build v11.0.2rc0 (linux64 - "Ubuntu 25.04")

CPU model: 11th Gen Intel(R) Core(TM) i5-1135G7 @ 2.40GHz, instruction set [SSE2|AVX|AVX2|AVX512]
Thread count: 4 physical cores, 8 logical processors, using up to 8 threads

Optimize a model with 94 rows, 1718 columns and 1391 nonzeros
Model fingerprint: 0x971b60d2
Model has 290 quadratic constraints
Model has 116 general constraints
Variable types: 1718 continuous, 0 integer (0 binary)
Coefficient statistics:
  Matrix range     [1e+00, 1e+00]
  QMatrix range    [8e-02, 6e+05]
  QLMatrix range   [1e+00, 1e+00]
  Objective range  [4e-01, 2e+02]
  Bounds range     [2e-15, 2e+13]
  RHS range        [3e-04, 4e+02]
  QRHS range       [2e-15, 1e+02]
Warning: Model contains large bounds
Warning: Model contains variables with very large bounds participating
         in product terms.
         Consider bounding these variables or reformulating the model.


Solving non-convex MIQCP

Variable types: 3458 continuous, 0 integer (0 binary)

Root relaxation: infeasible, 926 iterations, 0.02 seconds (0.01 work units)

    Nodes    |    Current Node    |     Objective Bounds      |     Work
 Expl Unexpl |  Obj  Depth IntInf | Incumbent    BestBd   Gap | It/Node Time

     0     0 infeasible    0               - infeasible      -     -    0s

Explored 1 nodes (926 simplex iterations) in 0.53 seconds (0.15 work units)
Thread count was 8 (of 8 available processors)

Solution count 0

Model is infeasible
Best objective -, best bound -, gap -
Gurobi 11.0.2: infeasible problem
926 simplex iterations
1 branching node

suffix dunbdd OUT;
*******************************************************************************

Constraints violation:


Sum of constraints violation: 12281.053909999997
*******************************************************************************

*******************************************************************************

Absolute and relative violations between original and approximation constraint 2:

+-----------------+--------------+--------------------------+------------------------+----------------------+----------------------+
| Constraint ID   |   flow value |   Original Con Violation |   Approx Con Violation |   Absolute Violation |   Relative Violation |
+=================+==============+==========================+========================+======================+======================+
| 1,17            |            0 |                        0 |                      0 |                    0 |                    0 |
+-----------------+--------------+--------------------------+------------------------+----------------------+----------------------+
| 1,31            |            0 |                        0 |                      0 |                    0 |                    0 |
+-----------------+--------------+--------------------------+------------------------+----------------------+----------------------+
| 2,3             |            0 |                        0 |                      0 |                    0 |                    0 |
+-----------------+--------------+--------------------------+------------------------+----------------------+----------------------+
| 2,18            |            0 |                        0 |                      0 |                    0 |                    0 |
+-----------------+--------------+--------------------------+------------------------+----------------------+----------------------+
| 3,4             |            0 |                        0 |                      0 |                    0 |                    0 |
+-----------------+--------------+--------------------------+------------------------+----------------------+----------------------+
| 3,11            |            0 |                        0 |                      0 |                    0 |                    0 |
+-----------------+--------------+--------------------------+------------------------+----------------------+----------------------+
| 4,5             |            0 |                        0 |                      0 |                    0 |                    0 |
+-----------------+--------------+--------------------------+------------------------+----------------------+----------------------+
| 5,6             |            0 |                        0 |                      0 |                    0 |                    0 |
+-----------------+--------------+--------------------------+------------------------+----------------------+----------------------+
| 5,13            |            0 |                        0 |                      0 |                    0 |                    0 |
+-----------------+--------------+--------------------------+------------------------+----------------------+----------------------+
| 6,7             |            0 |                        0 |                      0 |                    0 |                    0 |
+-----------------+--------------+--------------------------+------------------------+----------------------+----------------------+
| 7,24            |            0 |                        0 |                      0 |                    0 |                    0 |
+-----------------+--------------+--------------------------+------------------------+----------------------+----------------------+
| 8,28            |            0 |                        0 |                      0 |                    0 |                    0 |
+-----------------+--------------+--------------------------+------------------------+----------------------+----------------------+
| 9,36            |            0 |                        0 |                      0 |                    0 |                    0 |
+-----------------+--------------+--------------------------+------------------------+----------------------+----------------------+
| 10,11           |            0 |                        0 |                      0 |                    0 |                    0 |
+-----------------+--------------+--------------------------+------------------------+----------------------+----------------------+
| 10,32           |            0 |                        0 |                      0 |                    0 |                    0 |
+-----------------+--------------+--------------------------+------------------------+----------------------+----------------------+
| 11,19           |            0 |                        0 |                      0 |                    0 |                    0 |
+-----------------+--------------+--------------------------+------------------------+----------------------+----------------------+
| 11,26           |            0 |                        0 |                      0 |                    0 |                    0 |
+-----------------+--------------+--------------------------+------------------------+----------------------+----------------------+
| 12,4            |            0 |                        0 |                      0 |                    0 |                    0 |
+-----------------+--------------+--------------------------+------------------------+----------------------+----------------------+
| 12,13           |            0 |                        0 |                      0 |                    0 |                    0 |
+-----------------+--------------+--------------------------+------------------------+----------------------+----------------------+
| 13,14           |            0 |                        0 |                      0 |                    0 |                    0 |
+-----------------+--------------+--------------------------+------------------------+----------------------+----------------------+
| 14,20           |            0 |                        0 |                      0 |                    0 |                    0 |
+-----------------+--------------+--------------------------+------------------------+----------------------+----------------------+
| 14,21           |            0 |                        0 |                      0 |                    0 |                    0 |
+-----------------+--------------+--------------------------+------------------------+----------------------+----------------------+
| 15,16           |            0 |                        0 |                      0 |                    0 |                    0 |
+-----------------+--------------+--------------------------+------------------------+----------------------+----------------------+
| 15,22           |            0 |                        0 |                      0 |                    0 |                    0 |
+-----------------+--------------+--------------------------+------------------------+----------------------+----------------------+
| 16,25           |            0 |                        0 |                      0 |                    0 |                    0 |
+-----------------+--------------+--------------------------+------------------------+----------------------+----------------------+
| 16,29           |            0 |                        0 |                      0 |                    0 |                    0 |
+-----------------+--------------+--------------------------+------------------------+----------------------+----------------------+
| 17,2            |            0 |                        0 |                      0 |                    0 |                    0 |
+-----------------+--------------+--------------------------+------------------------+----------------------+----------------------+
| 17,18           |            0 |                        0 |                      0 |                    0 |                    0 |
+-----------------+--------------+--------------------------+------------------------+----------------------+----------------------+
| 18,10           |            0 |                        0 |                      0 |                    0 |                    0 |
+-----------------+--------------+--------------------------+------------------------+----------------------+----------------------+
| 19,12           |            0 |                        0 |                      0 |                    0 |                    0 |
+-----------------+--------------+--------------------------+------------------------+----------------------+----------------------+
| 19,20           |            0 |                        0 |                      0 |                    0 |                    0 |
+-----------------+--------------+--------------------------+------------------------+----------------------+----------------------+
| 20,15           |            0 |                        0 |                      0 |                    0 |                    0 |
+-----------------+--------------+--------------------------+------------------------+----------------------+----------------------+
| 21,6            |            0 |                        0 |                      0 |                    0 |                    0 |
+-----------------+--------------+--------------------------+------------------------+----------------------+----------------------+
| 21,22           |            0 |                        0 |                      0 |                    0 |                    0 |
+-----------------+--------------+--------------------------+------------------------+----------------------+----------------------+
| 22,7            |            0 |                        0 |                      0 |                    0 |                    0 |
+-----------------+--------------+--------------------------+------------------------+----------------------+----------------------+
| 22,23           |            0 |                        0 |                      0 |                    0 |                    0 |
+-----------------+--------------+--------------------------+------------------------+----------------------+----------------------+
| 23,25           |            0 |                        0 |                      0 |                    0 |                    0 |
+-----------------+--------------+--------------------------+------------------------+----------------------+----------------------+
| 24,8            |            0 |                        0 |                      0 |                    0 |                    0 |
+-----------------+--------------+--------------------------+------------------------+----------------------+----------------------+
| 24,23           |            0 |                        0 |                      0 |                    0 |                    0 |
+-----------------+--------------+--------------------------+------------------------+----------------------+----------------------+
| 25,8            |            0 |                        0 |                      0 |                    0 |                    0 |
+-----------------+--------------+--------------------------+------------------------+----------------------+----------------------+
| 26,15           |            0 |                        0 |                      0 |                    0 |                    0 |
+-----------------+--------------+--------------------------+------------------------+----------------------+----------------------+
| 26,27           |            0 |                        0 |                      0 |                    0 |                    0 |
+-----------------+--------------+--------------------------+------------------------+----------------------+----------------------+
| 27,16           |            0 |                        0 |                      0 |                    0 |                    0 |
+-----------------+--------------+--------------------------+------------------------+----------------------+----------------------+
| 28,9            |            0 |                        0 |                      0 |                    0 |                    0 |
+-----------------+--------------+--------------------------+------------------------+----------------------+----------------------+
| 28,29           |            0 |                        0 |                      0 |                    0 |                    0 |
+-----------------+--------------+--------------------------+------------------------+----------------------+----------------------+
| 29,30           |            0 |                        0 |                      0 |                    0 |                    0 |
+-----------------+--------------+--------------------------+------------------------+----------------------+----------------------+
| 29,33           |            0 |                        0 |                      0 |                    0 |                    0 |
+-----------------+--------------+--------------------------+------------------------+----------------------+----------------------+
| 30,9            |            0 |                        0 |                      0 |                    0 |                    0 |
+-----------------+--------------+--------------------------+------------------------+----------------------+----------------------+
| 30,35           |            0 |                        0 |                      0 |                    0 |                    0 |
+-----------------+--------------+--------------------------+------------------------+----------------------+----------------------+
| 31,10           |            0 |                        0 |                      0 |                    0 |                    0 |
+-----------------+--------------+--------------------------+------------------------+----------------------+----------------------+
| 31,34           |            0 |                        0 |                      0 |                    0 |                    0 |
+-----------------+--------------+--------------------------+------------------------+----------------------+----------------------+
| 32,27           |            0 |                        0 |                      0 |                    0 |                    0 |
+-----------------+--------------+--------------------------+------------------------+----------------------+----------------------+
| 32,33           |            0 |                        0 |                      0 |                    0 |                    0 |
+-----------------+--------------+--------------------------+------------------------+----------------------+----------------------+
| 33,34           |            0 |                        0 |                      0 |                    0 |                    0 |
+-----------------+--------------+--------------------------+------------------------+----------------------+----------------------+
| 34,35           |            0 |                        0 |                      0 |                    0 |                    0 |
+-----------------+--------------+--------------------------+------------------------+----------------------+----------------------+
| 35,36           |            0 |                        0 |                      0 |                    0 |                    0 |
+-----------------+--------------+--------------------------+------------------------+----------------------+----------------------+
| 36,1            |            0 |                        0 |                      0 |                    0 |                    0 |
+-----------------+--------------+--------------------------+------------------------+----------------------+----------------------+
| 37,1            |            0 |                      121 |                    121 |                    0 |                    0 |
+-----------------+--------------+--------------------------+------------------------+----------------------+----------------------+

Sum of violation of original headloss constraint: 121.0
Sum of violation of approx headloss constraint: 121.0

Con2 sum of absolute violation between original function and approximate function: 0.0
Con2 sum of relative violation between original function and approximate function: 0.0
*******************************************************************************

Total cost using gurobi: 0.0
gurobi solve time: 0.57 seconds
*******************************************************************************

